branch-and-cut/resultados/C/c16.sol
11
10
272 495
177 495
495 338
253 338
246 494
272 98
446 346
177 494
272 30
346 98
