branch-and-cut/resultados/C/c16.log

Gurobi 10.0.3 (linux64) logging started Sat Dec 16 23:56:56 2023

Set parameter LogFile to value "resultados/C/c16.log"
Set parameter Cutoff to value 38
Gurobi Optimizer version 10.0.3 build v10.0.3rc0 (linux64)

CPU model: Intel(R) Core(TM) i7-8650U CPU @ 1.90GHz, instruction set [SSE2|AVX|AVX2]
Thread count: 4 physical cores, 8 logical processors, using up to 8 threads

Optimize a model with 5 rows, 12500 columns and 274 nonzeros
Model fingerprint: 0xc36164c3
Variable types: 0 continuous, 12500 integer (12500 binary)
Coefficient statistics:
  Matrix range     [1e+00, 1e+00]
  Objective range  [1e+00, 1e+01]
  Bounds range     [1e+00, 1e+00]
  RHS range        [1e+00, 1e+00]
Presolve time: 0.00s
Presolved: 5 rows, 12500 columns, 274 nonzeros
Variable types: 0 continuous, 12500 integer (12500 binary)

Root relaxation: objective 5.000000e+00, 5 iterations, 0.00 seconds (0.00 work units)

    Nodes    |    Current Node    |     Objective Bounds      |     Work
 Expl Unexpl |  Obj  Depth IntInf | Incumbent    BestBd   Gap | It/Node Time

     0     0    5.00000    0    -          -    5.00000      -     -    0s
     0     0    5.00000    0    -          -    5.00000      -     -    0s
     0     0    5.00000    0    -          -    5.00000      -     -    0s
     0     0    5.50000    0    3          -    5.50000      -     -    0s
     0     0    6.91667    0   17          -    6.91667      -     -    0s
     0     2    6.91667    0   17          -    6.91667      -     -    1s
    47    48    9.25000   10    5          -    8.25000      -   5.7    5s
   107   103   11.00000   21    -          -    8.25000      -   5.2   10s
   159   143   10.00000   11    -          -    8.25000      -   6.2   15s
   226   199    9.69231    4   16          -    8.25000      -   6.9   20s
   318   262   12.00000   17    -          -    9.00000      -   7.5   27s
   365   309   10.28571    6   16          -    9.00000      -   8.3   31s
   409   348   10.57143    7   12          -    9.00000      -   8.3   35s
   459   373   11.55556   11   11          -    9.00000      -   8.3   43s
   487   405   10.25000    9    5          -    9.00000      -   8.6   45s
   551   455   11.33333   17    7          -    9.00000      -   8.8   51s
   600   482   11.92308   19   15          -    9.00000      -   8.9   56s
   608   485   15.00000   55    -          -    9.00000      -   8.9   61s
   648   521   10.88889    7   11          -    9.00000      -   9.4   66s
   698   565   12.00000   12   11          -    9.00000      -   9.5   70s
   716   582   12.59349   16   39          -    9.00000      -   9.8   76s
   753   602   11.11266   14   37          -    9.00000      -   9.8   80s
   802   664   14.25000   34    9          -    9.00000      -   9.9   85s
   858   689   10.65440    8   40          -    9.08333      -  10.1   94s
   874   707   10.93906    9   39          -    9.08333      -  10.3   99s
   890   724   11.54927   13   24          -    9.08333      -  10.4  100s
   921   744   11.50000   14    7          -    9.08333      -  10.5  107s
   948   770   12.87500   15   15          -    9.08333      -  10.7  110s
   961   771   14.70588   38   13          -    9.08333      -  10.8  115s
   998   812   12.28947   25   21          -    9.08333      -  11.0  120s
H 1022   776                      14.0000000    9.08333  35.1%  11.0  123s
H 1022   737                      12.0000000    9.08333  24.3%  11.0  123s
  1024   738   12.00000   23   59   12.00000    9.08333  24.3%  11.0  127s
  1029   743   12.00000   32   52   12.00000    9.11393  24.1%  11.3  131s
  1031   744   11.75000   12   52   12.00000    9.14406  23.8%  11.3  138s
  1032   745   11.25000   13   58   12.00000    9.46467  21.1%  11.3  142s
  1037   750   12.00000   18   53   12.00000    9.46467  21.1%  11.7  147s
  1039   751   12.00000   21   61   12.00000    9.47202  21.1%  11.6  154s
  1040   752   11.00000   17   65   12.00000    9.63178  19.7%  11.6  158s
  1041   753   12.00000   18   61   12.00000    9.63657  19.7%  11.6  162s
  1042   753   12.00000   21   62   12.00000    9.68422  19.3%  11.6  165s
  1044   755   10.50000   17   68   12.00000    9.69975  19.2%  11.6  173s
  1045   755   12.00000   29   64   12.00000    9.71605  19.0%  11.6  177s
  1046   756   12.00000   33   63   12.00000    9.71605  19.0%  11.6  181s
  1048   760    9.92591   35   47   12.00000    9.92591  17.3%  12.4  189s
  1050   764   10.03475   36   49   12.00000    9.92591  17.3%  12.7  196s
  1054   765   10.10222   37   53   12.00000   10.00000  16.7%  13.1  203s
  1057   764   10.77843   37   45   12.00000   10.00000  16.7%  13.2  207s
  1058   765   10.70308   37   29   12.00000   10.00000  16.7%  13.4  211s
  1062   766   10.12438   38   57   12.00000   10.06454  16.1%  13.7  223s
  1063   765   10.06565   38   61   12.00000   10.06565  16.1%  13.8  227s
  1066   767   10.23663   38   37   12.00000   10.06565  16.1%  13.9  239s
  1070   766   10.15956   39   57   12.00000   10.06565  16.1%  14.3  253s
  1076   766   10.60954   39   56   12.00000   10.06565  16.1%  14.4  271s
  1083   767   10.16503   40   59   12.00000   10.06565  16.1%  14.5  289s
  1090   768   10.21127   41   54   12.00000   10.06565  16.1%  14.7  309s
  1099   764   10.75000   41   18   12.00000   10.06565  16.1%  14.9  327s
  1107   765   10.28945   42   54   12.00000   10.06565  16.1%  14.9  337s
  1111   763   10.94283   47   47   12.00000   10.06565  16.1%  15.0  351s
  1120   762   10.42023   43   46   12.00000   10.06565  16.1%  15.1  366s
  1131   758   10.61704   43   56   12.00000   10.06565  16.1%  15.4  373s
  1145   754   10.48620   44   46   12.00000   10.06565  16.1%  15.7  395s
* 1149   714              42      11.0000000   10.06565  8.49%  15.8  403s

Cutting planes:
  User: 24
  Gomory: 5
  MIR: 3
  Flow cover: 24
  Zero half: 7
  Lazy constraints: 79

Explored 1151 nodes (18343 simplex iterations) in 404.00 seconds (8.11 work units)
Thread count was 8 (of 8 available processors)

Solution count 3: 11 12 14 

Optimal solution found (tolerance 1.00e-04)
Best objective 1.100000000000e+01, best bound 1.100000000000e+01, gap 0.0000%

User-callback calls 5008, time in user-callback 393.35 sec
